webassembly/ejemplos_dzn/folder10_json_49.dzn
TERM = { '.', 's(2)', 'in_1', 'local_0', 'local_1', 'in_2', 'in_4', 'in_3', 's(1)', 's(0)', 'in_0'};
null = '.';
s = 10;
n = 13;
ndeps = 7;
max_registers_sz = 3;
NR = 0;
registers = [| |];
dependencies = [|'i32.load8_s_3', 'i32.store_4', |'i32.store_4', 'i32.store16_5', |'i32.store16_8', 'i32.store16_9', |'i32.store16_5', 'i32.load8_s_6', |'i32.store16_5', 'i32.load_7', |'i32.load8_s_6', 'i32.store16_8', |'i32.load_7', 'i32.store16_8'|];
GET_ENUM = { GET1, GET2, GET3};
SET_ENUM = { SET1, SET2, SET3};
TEE_ENUM = { TEE1, TEE2, TEE3};
N = 9;
OP = { 'i32.load8_s_3', 'i32.store_4', 'i32.store16_5', 'i32.load8_s_6', 'i32.load_7', 'i32.store16_8', 'i32.store16_9', 'local.get_0', 'local.get_1' };
in_ops = [1, 2, 2, 1, 1, 2, 2, 0, 0 ];
out_ops = [1, 0, 0, 1, 1, 0, 0, 1, 1 ];
in1 = ['local_0', 's(0)', 'local_0', 'in_1', 's(1)', 's(2)', 'in_3', '.', '.' ];
in2 = ['.', 'local_1', 'in_0', '.', '.', 'in_2', 'in_4', '.', '.' ];
in3 = ['.', '.', '.', '.', '.', '.', '.', '.', '.' ];
out1 = ['s(0)', '.', '.', 's(1)', 's(2)', '.', '.', 'local_0', 'local_1' ];
out2 = ['.', '.', '.', '.', '.', '.', '.', '.', '.' ];
out3 = ['.', '.', '.', '.', '.', '.', '.', '.', '.' ];
comm = [false, false, false, false, false, false, false, false, false ];
gas = [1, 1, 1, 1, 1, 1, 1, 1, 1 ];
sz = [1, 1, 1, 1, 1, 1, 1, 1, 1 ];
stor = [false, true, true, false, false, true, true, false, false ];
lb = [ 1, 1, 1, 1, 1, 1, 1, 1, 1 ];
ub = [ 10, 10, 10, 10, 10, 10, 10, 10, 10 ];
startstack = [ 'in_0', 'in_1', 'in_2', 'in_3', 'in_4', null, null, null, null, null, null, null, null ];
endstack = [ null, null, null, null, null, null, null, null, null, null, null, null, null ];
